
Gurobi 11.0.2 (linux64, gurobi_cl) logging started Wed Jun 12 10:46:48 2024

Set parameter WLSAccessID
Set parameter WLSSecret
Set parameter LicenseID to value 2526083
Set parameter LogFile to value "gurobi.log"
Using license file /home/sebas/gurobi1102/gurobi.lic
Academic license 2526083 - for non-commercial use only - registered to se___@gmail.com

Gurobi 11.0.2 (linux64, gurobi_cl) logging started Wed Jun 12 10:47:29 2024

Set parameter WLSAccessID
Set parameter WLSSecret
Set parameter LicenseID to value 2526083
Set parameter LogFile to value "gurobi.log"
Using license file /home/sebas/gurobi1102/gurobi.lic
Academic license 2526083 - for non-commercial use only - registered to se___@gmail.com

Gurobi 11.0.2 (linux64, gurobi_cl) logging started Wed Jun 12 11:03:55 2024

Set parameter LogFile to value "gurobi.log"
Using license file /home/sebas/gurobi1102/gurobi.lic

Gurobi 11.0.2 (linux64, gurobi_cl) logging started Wed Jun 12 11:04:11 2024

Set parameter LogFile to value "gurobi.log"
Using license file /home/sebas/gurobi1102/gurobi.lic

Gurobi 11.0.2 (linux64, gurobi_cl) logging started Wed Jun 12 11:04:54 2024

Set parameter Username
Set parameter LogFile to value "gurobi.log"
Using license file /home/sebas/gurobi1102/gurobi.lic
Academic license - for non-commercial use only - expires 2025-06-12

Gurobi 11.0.2 (linux64, gurobi_cl) logging started Wed Jun 12 11:05:05 2024

Set parameter Username
Set parameter LogFile to value "gurobi.log"
Using license file /home/sebas/gurobi1102/gurobi.lic
Academic license - for non-commercial use only - expires 2025-06-12

Gurobi 11.0.2 (linux64, gurobi_cl) logging started Wed Jun 12 11:05:55 2024

Set parameter Username
Set parameter LogFile to value "gurobi.log"
Using license file /home/sebas/gurobi1102/gurobi.lic
Academic license - for non-commercial use only - expires 2025-06-12

Gurobi 11.0.2 (linux64, gurobi_cl) logging started Wed Jun 12 11:07:40 2024

Set parameter Username
Set parameter LogFile to value "gurobi.log"
Using license file /home/sebas/gurobi1102/gurobi.lic
Academic license - for non-commercial use only - expires 2025-06-12

Gurobi 11.0.2 (linux64, gurobi_cl) logging started Wed Jun 12 11:23:49 2024

Set parameter Username
Set parameter LogFile to value "gurobi.log"
Using license file /home/sebas/gurobi1102/gurobi.lic
Academic license - for non-commercial use only - expires 2025-06-12

Gurobi 11.0.2 (linux64, gurobi_cl) logging started Wed Jun 12 11:29:29 2024

Set parameter Username
Set parameter LogFile to value "gurobi.log"
Using license file /home/sebas/gurobi1102/gurobi.lic
Academic license - for non-commercial use only - expires 2025-06-12

Gurobi 11.0.2 (linux64, gurobi_cl) logging started Wed Jun 12 11:32:47 2024

Set parameter Username
Set parameter LogFile to value "gurobi.log"
Using license file /home/sebas/gurobi1102/gurobi.lic
Academic license - for non-commercial use only - expires 2025-06-12

Gurobi 11.0.2 (linux64, gurobi_cl) logging started Wed Jun 12 11:34:05 2024

Set parameter Username
Set parameter LogFile to value "gurobi.log"
Using license file /home/sebas/gurobi1102/gurobi.lic
Academic license - for non-commercial use only - expires 2025-06-12
